p edge 60 390 46
e 56 58
e 56 22
e 56 36
e 56 9
e 56 12
e 56 1
e 56 34
e 56 7
e 56 37
e 56 18
e 56 21
e 56 52
e 56 11
e 58 37
e 58 10
e 58 21
e 58 13
e 58 57
e 58 49
e 58 22
e 58 31
e 58 9
e 58 23
e 58 42
e 58 45
e 16 22
e 16 15
e 16 17
e 16 8
e 16 11
e 16 6
e 16 28
e 16 9
e 16 23
e 16 41
e 16 59
e 16 12
e 16 45
e 22 19
e 22 46
e 22 55
e 22 59
e 22 44
e 22 39
e 22 25
e 22 34
e 22 24
e 22 10
e 8 18
e 8 36
e 8 13
e 8 17
e 8 12
e 8 6
e 8 40
e 8 21
e 8 33
e 8 37
e 8 23
e 8 41
e 18 59
e 18 11
e 18 53
e 18 25
e 18 29
e 18 17
e 18 4
e 18 15
e 18 10
e 18 31
e 18 5
e 48 54
e 48 34
e 48 45
e 48 40
e 48 5
e 48 27
e 48 46
e 48 38
e 48 44
e 48 6
e 48 28
e 48 20
e 48 15
e 54 49
e 54 51
e 54 13
e 54 57
e 54 11
e 54 6
e 54 36
e 54 47
e 54 39
e 54 1
e 54 40
e 54 15
e 59 10
e 59 41
e 59 43
e 59 19
e 59 28
e 59 53
e 59 14
e 59 60
e 59 32
e 59 26
e 36 19
e 36 3
e 36 51
e 36 33
e 36 50
e 36 31
e 36 34
e 36 57
e 36 29
e 36 27
e 19 7
e 19 49
e 19 35
e 19 44
e 19 20
e 19 13
e 19 14
e 19 55
e 19 32
e 19 50
e 41 42
e 41 50
e 41 6
e 41 12
e 41 44
e 41 2
e 41 32
e 41 5
e 41 47
e 41 38
e 42 6
e 42 9
e 42 31
e 42 12
e 42 46
e 42 7
e 42 45
e 42 37
e 42 29
e 42 5
e 42 49
e 11 37
e 11 45
e 11 13
e 11 26
e 11 2
e 11 35
e 11 43
e 11 14
e 11 47
e 37 3
e 37 25
e 37 17
e 37 20
e 37 15
e 37 47
e 37 29
e 37 32
e 34 4
e 34 7
e 34 29
e 34 32
e 34 13
e 34 51
e 34 3
e 34 17
e 34 1
e 45 52
e 45 6
e 45 14
e 45 25
e 45 31
e 45 7
e 45 12
e 45 40
e 3 51
e 3 28
e 3 55
e 3 23
e 3 4
e 3 17
e 3 39
e 3 43
e 3 20
e 3 52
e 51 39
e 51 52
e 51 23
e 51 15
e 51 2
e 51 60
e 51 24
e 51 5
e 51 38
e 15 29
e 15 33
e 15 13
e 15 28
e 15 32
e 15 50
e 15 40
e 26 53
e 26 43
e 26 24
e 26 13
e 26 33
e 26 60
e 26 28
e 26 46
e 26 14
e 26 7
e 26 1
e 53 24
e 53 38
e 53 55
e 53 52
e 53 33
e 53 6
e 53 14
e 53 47
e 53 12
e 53 4
e 4 29
e 4 24
e 4 55
e 4 27
e 4 31
e 4 40
e 4 49
e 4 44
e 4 21
e 17 57
e 17 47
e 17 28
e 17 27
e 17 49
e 17 7
e 17 2
e 13 43
e 13 24
e 13 9
e 13 50
e 13 27
e 10 40
e 10 35
e 10 21
e 10 25
e 10 20
e 10 5
e 10 57
e 10 38
e 10 6
e 7 35
e 7 44
e 7 25
e 7 20
e 7 24
e 7 50
e 35 39
e 35 30
e 35 33
e 35 28
e 35 31
e 35 47
e 35 1
e 35 60
e 35 46
e 44 60
e 44 46
e 44 32
e 44 28
e 44 9
e 44 31
e 44 39
e 30 55
e 30 29
e 30 21
e 30 24
e 30 5
e 30 49
e 30 43
e 30 52
e 30 38
e 30 6
e 30 9
e 30 20
e 55 60
e 55 14
e 55 39
e 55 1
e 55 40
e 55 21
e 55 38
e 28 14
e 28 24
e 28 29
e 28 47
e 52 60
e 52 14
e 52 39
e 52 38
e 52 47
e 52 20
e 52 23
e 60 25
e 60 32
e 60 43
e 60 5
e 60 46
e 60 38
e 23 33
e 23 6
e 23 1
e 23 50
e 23 31
e 23 2
e 23 21
e 33 20
e 33 12
e 33 2
e 33 29
e 33 24
e 33 6
e 14 2
e 14 49
e 14 21
e 14 5
e 29 40
e 29 25
e 29 1
e 57 1
e 57 24
e 57 27
e 57 46
e 57 38
e 57 49
e 57 9
e 57 50
e 40 38
e 40 9
e 40 39
e 40 12
e 49 2
e 49 5
e 49 27
e 49 39
e 50 25
e 50 20
e 50 32
e 50 43
e 50 27
e 46 25
e 46 39
e 46 1
e 46 5
e 46 47
e 43 2
e 43 32
e 43 27
e 43 47
e 43 12
e 24 5
e 24 31
e 12 21
e 12 2
e 12 20
e 6 21
e 25 21
e 25 38
e 25 1
e 2 20
e 2 9
e 2 27
e 47 31
e 47 39
e 20 32
e 21 27
e 1 9
e 1 39
e 32 9
e 32 31
e 31 9
e 5 27
e 27 38
